38
75
52	13
51	10
50	13
49	15
48	9
47	10
46	16
45	14
44	9
43	17
42	13
41	9
40	21
39	12
38	19
37	14
36	15
35	16
34	15
33	21
32	9
31	16
30	10
29	13
28	12
27	19
26	13
25	16
24	11
23	11
22	10
21	8
20	10
19	15
18	6
17	16
16	15
15	9
